events = {evnt1,evnt2,evnt3,evnt4,evnt5,evnt6,evnt7,evnt8,evnt9,evnt10};
%lenE =10;
InitialM =[|
    false,true,false|
    false,true,false|
    false,true,false|
    false,true,false|
    false,true,false|
    false,true,true|
    false,true,false|
    false,false,true|
    false,false,true|
    false,true,false
|];
Act ={CphToLhr,CphToMad,MadToLhr,LhrToMia,LhrToJfk,MiaToClo,MiaToPty,PtyToClo,JfkToBog,BogToClo};
%lenAct =10;
numConditions =9;
conditions =  [|
    evnt1,evnt3|
    evnt1,evnt4|
    evnt2,evnt5|
    evnt5,evnt3|
    evnt5,evnt4|
    evnt3,evnt6|
    evnt7,evnt8|
    evnt10,evnt9|
    evnt4,evnt10
|];
numResponses =1;
responses =[|
    evnt2,evnt5          
|];
numInclusions =9;
inclusions =[|
    evnt1,evnt3|
    evnt1,evnt4|
    evnt5,evnt3|
    evnt5,evnt4|
    evnt3,evnt6|
    evnt3,evnt7|
    evnt4,evnt10|
    evnt10,evnt9|
    evnt7,evnt8
|];
numExclusions =26;
exclusions =[|
    evnt1,evnt1|
    evnt2,evnt2|
    evnt3,evnt3|
    evnt4,evnt4|
    evnt5,evnt5|
    evnt6,evnt6|
    evnt7,evnt7|
    evnt8,evnt8|
    evnt9,evnt9|
    evnt10,evnt10|
    evnt1,evnt2|
    evnt2,evnt1|
    evnt1,evnt5|
    evnt3,evnt4|
    evnt4,evnt3|
    evnt4,evnt6|
    evnt4,evnt7|
    evnt3,evnt10|
    evnt6,evnt7|
    evnt7,evnt6|
    evnt6,evnt8|
    evnt8,evnt6|
    evnt6,evnt9|
    evnt9,evnt6|
    evnt8,evnt9|
    evnt9,evnt8
|];
l = [CphToLhr,CphToMad,LhrToMia,LhrToJfk,MadToLhr,MiaToClo,MiaToPty,PtyToClo,BogToClo,JfkToBog];
K=10